190
0 85 73 114 24 115 19 43 86 89 
151 122 162 120 138 150 139 93 7 117 
136 148 159 36 153 158 183 84 87 77 
156 161 165 116 70 23 143 174 132 181 
90 25 52 92 34 27 82 131 88 149 
163 51 58 130 142 46 152 13 83 66 
113 57 11 48 177 22 18 157 29 110 
189 164 128 144 185 81 5 68 15 121 
9 166 170 99 137 12 119 103 167 55 
94 16 140 54 141 41 47 39 168 44 
102 101 145 176 71 40 123 80 20 129 
78 49 187 184 35 188 98 30 53 109 
69 62 180 178 32 76 60 175 104 37 
125 3 4 17 45 135 72 10 126 160 
133 28 186 38 124 2 173 118 179 107 
134 21 31 111 42 100 63 95 105 96 
75 172 67 154 91 147 146 14 79 155 
127 182 26 8 1 112 106 6 65 74 
33 59 50 56 61 108 64 169 97 171 
